Bi54Se8
1.0
6.2913 -10.89687 0.0
6.2913 10.89687 0.0
0.0 0.0 29.18477
Bi Se
54 81
Cartesian
2.0971 -1.2107633333333332 21.402034062539478
0.0 0.0 17.510992604127186
2.0970999999999997 3.63229 17.510992604127186
4.1941999999999995 7.26458 17.510992604127186
2.0970999999999997 -3.63229 17.510992604127186
4.1941999999999995 -5.360286288909795e-17 17.510992604127186
6.2913 3.63229 17.510992604127186
4.1941999999999995 -7.26458 17.510992604127186
10.4855 1.2107633333333325 7.7827359374605205
8.3884 -2.4215266666666673 7.7827359374605205
6.2913 -6.053816666666667 7.7827359374605205
8.3884 4.843053333333332 7.7827359374605205
6.2913 1.2107633333333325 7.7827359374605205
4.1942 -2.4215266666666673 7.7827359374605205
8.388399999999999 -1.072057257781959e-16 17.510992604127186
6.2913 -3.63229 17.510992604127186
2.0971 1.2107633333333334 1.9455207292061438
4.1942 4.843053333333334 1.9455207292061438
6.2913 8.475343333333333 1.9455207292061438
4.1942 -2.4215266666666664 1.9455207292061438
6.2913 1.2107633333333334 1.9455207292061438
8.3884 4.843053333333334 1.9455207292061438
6.2913 -6.053816666666666 1.9455207292061438
8.3884 -2.4215266666666664 1.9455207292061438
10.485499999999998 1.2107633333333334 1.9455207292061438
2.0971000000000006 1.2107633333333325 7.7827359374605205
8.388399999999999 -1.072057257781959e-16 11.673777395872815
4.1942 4.843053333333332 7.7827359374605205
6.2913 -3.63229 11.673777395872815
6.2913 3.63229 11.673777395872815
4.1942 2.421526666666667 21.402034062539478
6.2913 6.053816666666666 21.402034062539478
4.1942 -4.843053333333333 21.402034062539478
6.2913 -1.2107633333333332 21.402034062539478
8.3884 2.421526666666667 21.402034062539478
6.2913 -8.475343333333333 21.402034062539478
8.3884 -4.843053333333333 21.402034062539478
10.485499999999998 -1.2107633333333332 21.402034062539478
2.0971 -1.2107633333333336 27.239249270793852
4.1942 2.421526666666666 27.239249270793852
6.2913 6.053816666666666 27.239249270793852
4.1942 -4.843053333333334 27.239249270793852
6.2913 -1.2107633333333336 27.239249270793852
8.3884 2.421526666666666 27.239249270793852
6.2913 -8.475343333333333 27.239249270793852
8.3884 -4.843053333333334 27.239249270793852
10.485499999999998 -1.2107633333333336 27.239249270793852
0.0 0.0 11.673777395872815
2.0970999999999997 3.63229 11.673777395872815
4.1941999999999995 7.26458 11.673777395872815
2.0970999999999997 -3.63229 11.673777395872815
4.1941999999999995 -5.360286288909795e-17 11.673777395872815
4.1941999999999995 -7.26458 11.673777395872815
6.2913 8.475343333333331 7.7827359374605205
6.2913 -8.475343333333333 3.51854058381797
8.3884 -4.843053333333333 3.51854058381797
10.485499999999998 -1.2107633333333332 3.51854058381797
4.1942 4.843053333333333 19.456513333333334
8.3884 2.421526666666667 3.51854058381797
6.2913 -6.053816666666666 13.246797250484635
8.3884 4.843053333333333 13.246797250484635
6.2913 1.2107633333333332 13.246797250484635
4.1942 -2.421526666666667 13.246797250484635
6.2913 8.475343333333333 13.246797250484635
4.1942 4.843053333333333 13.246797250484635
2.0971 1.2107633333333332 13.246797250484635
10.485499999999998 -1.2107633333333334 15.937972749515366
8.3884 -4.843053333333334 15.937972749515366
6.2913 -8.475343333333333 15.937972749515366
8.3884 2.4215266666666664 15.937972749515366
6.2913 -1.2107633333333334 15.937972749515366
4.1942 -4.843053333333334 15.937972749515366
6.2913 6.053816666666666 15.937972749515366
4.1942 2.4215266666666664 15.937972749515366
2.0971 -1.2107633333333334 15.937972749515366
10.485499999999998 1.2107633333333332 19.456513333333334
8.3884 -2.421526666666667 19.456513333333334
6.2913 -6.053816666666666 19.456513333333334
8.3884 4.843053333333333 19.456513333333334
6.2913 1.2107633333333332 19.456513333333334
4.1942 -2.421526666666667 19.456513333333334
6.2913 8.475343333333333 19.456513333333334
2.0971 1.2107633333333332 19.456513333333334
6.2913 -1.2107633333333332 3.51854058381797
6.2913 -1.2107633333333332 9.728256666666667
6.2913 6.053816666666666 3.51854058381797
4.1941999999999995 7.26458 22.975053917151303
2.0970999999999997 3.63229 22.975053917151303
0.0 0.0 22.975053917151303
10.485499999999998 1.2107633333333332 25.66622941618203
8.3884 -2.421526666666667 25.66622941618203
6.2913 -6.053816666666666 25.66622941618203
8.3884 4.843053333333333 25.66622941618203
6.2913 1.2107633333333332 25.66622941618203
4.1942 -2.421526666666667 25.66622941618203
6.2913 8.475343333333333 25.66622941618203
4.1942 4.843053333333333 25.66622941618203
2.0971 1.2107633333333332 25.66622941618203
8.388399999999999 -1.072057257781959e-16 0.0
6.2913 -3.63229 0.0
4.1941999999999995 -7.26458 0.0
6.2913 3.63229 0.0
4.1941999999999995 -5.360286288909795e-17 0.0
2.0970999999999997 -3.63229 0.0
4.1941999999999995 7.26458 0.0
2.0970999999999997 3.63229 0.0
0.0 0.0 0.0
2.0970999999999997 -3.63229 22.975053917151303
4.1941999999999995 -5.360286288909795e-17 22.975053917151303
6.2913 3.63229 22.975053917151303
4.1941999999999995 -7.26458 22.975053917151303
4.1942 2.421526666666667 3.51854058381797
2.0971 -1.2107633333333332 3.51854058381797
8.388399999999999 -1.072057257781959e-16 6.209716082848694
6.2913 -3.63229 6.209716082848694
4.1941999999999995 -7.26458 6.209716082848694
6.2913 3.63229 6.209716082848694
4.1941999999999995 -5.360286288909795e-17 6.209716082848694
2.0970999999999997 -3.63229 6.209716082848694
4.1941999999999995 7.26458 6.209716082848694
2.0970999999999997 3.63229 6.209716082848694
4.1942 -4.843053333333333 3.51854058381797
0.0 0.0 6.209716082848694
8.3884 -4.843053333333333 9.728256666666667
6.2913 -8.475343333333333 9.728256666666667
8.3884 2.421526666666667 9.728256666666667
8.3884 -2.421526666666667 13.246797250484635
4.1942 -4.843053333333333 9.728256666666667
6.2913 6.053816666666666 9.728256666666667
4.1942 2.421526666666667 9.728256666666667
2.0971 -1.2107633333333332 9.728256666666667
8.388399999999999 -1.072057257781959e-16 22.975053917151303
6.2913 -3.63229 22.975053917151303
10.485499999999998 -1.2107633333333332 9.728256666666667
10.485499999999998 1.2107633333333332 13.246797250484635

